77 4 87 150 3 109 37 46 45 91 63 29 116 80 70 74 157 137 36 181 121 177 114 194 176 133 129 189 166 83 149 56 92 58 191 9 99 170 71 167 67 79 106 174 86 62 90 161 192 12 33 130 19 84 44 171 89 103 64 35 43 100 47 182 15 94 160 38 145 131 173 39 163 108 119 60 78 81 98 20 186 73 23 193 151 122 162 113 118 96 135 154 26 123 49 55 101 69 76 128 188 179 148 180 164 134 61 132 21 140 147 178 7 105 93 199 136 30 120 139 75 66 165 172 42 8 40 14 143 41 111 59 125 102 144 127 187 169 24 17 184 18 53 190 54 183 57 155 65 97 28 153 22 110 25 159 10 50 13 82 115 156 112 158 168 11 197 126 124 88 52 68 195 152 185 1 117 32 95 72 104 198 138 0 5 142 31 85 51 196 6 48 34 107 146 27 141 175 2 16 

